feasible solution found by trivial heuristic after 0.3 seconds, objective value -5.972919e+06
presolving:
(round 1, fast)       16240 del vars, 18793 del conss, 0 add conss, 0 chg bounds, 3950 chg sides, 3950 chg coeffs, 0 upgd conss, 0 impls, 1860 clqs
(round 2, fast)       18215 del vars, 22743 del conss, 0 add conss, 0 chg bounds, 3950 chg sides, 3950 chg coeffs, 0 upgd conss, 0 impls, 1860 clqs
   (0.8s) running MILP presolver
   (0.8s) MILP presolver found nothing
(round 3, exhaustive) 18215 del vars, 22743 del conss, 0 add conss, 0 chg bounds, 3950 chg sides, 3950 chg coeffs, 1860 upgd conss, 0 impls, 1860 clqs
   (0.9s) probing: 51/142 (35.9%) - 0 fixings, 0 aggregations, 0 implications, 0 bound changes
   (0.9s) probing aborted: 50/50 successive totally useless probings
   (0.9s) symmetry computation started: requiring (bin +, int -, cont +), (fixed: bin -, int +, cont -)
   (0.9s) no symmetry present
presolving (4 rounds: 4 fast, 2 medium, 2 exhaustive):
 18215 deleted vars, 22743 deleted constraints, 0 added constraints, 0 tightened bounds, 0 added holes, 3950 changed sides, 3950 changed coefficients
 0 implications, 1860 cliques
presolved problem has 142 variables (142 bin, 0 int, 0 impl, 0 cont) and 1860 constraints
   1860 constraints of type <setppc>
Presolving Time: 0.71

 time | node  | left  |LP iter|LP it/n|mem/heur|mdpt |vars |cons |rows |cuts |sepa|confs|strbr|  dualbound   | primalbound  |  gap   | compl. 
t 0.9s|     1 |     0 |     0 |     - | trivial|   0 | 142 |1860 |   0 |   0 |  0 |   0 |   0 |-5.871826e+06 |-5.972919e+06 |   1.72%| unknown
p 1.0s|     1 |     0 |     0 |     - |  clique|   0 | 142 |1860 |1860 |   0 |  0 |   0 |   0 |-5.871826e+06 |-5.953633e+06 |   1.39%| unknown
  1.1s|     1 |     0 |   714 |     - |    72M |   0 | 142 |1860 |1860 |   0 |  0 |   0 |   0 |-5.946263e+06 |-5.953633e+06 |   0.12%| unknown
  1.2s|     1 |     0 |   783 |     - |    73M |   0 | 142 |1860 |1861 |   1 |  1 |   0 |   0 |-5.946308e+06 |-5.953633e+06 |   0.12%| unknown
  1.2s|     1 |     0 |   852 |     - |    74M |   0 | 142 |1860 |1862 |   2 |  2 |   0 |   0 |-5.946329e+06 |-5.953633e+06 |   0.12%| unknown
  1.4s|     1 |     0 |   959 |     - |    75M |   0 | 142 |1860 |1863 |   3 |  3 |   0 |   0 |-5.946368e+06 |-5.953633e+06 |   0.12%| unknown
  1.5s|     1 |     0 |  1075 |     - |    76M |   0 | 142 |1860 |1865 |   5 |  4 |   0 |   0 |-5.946396e+06 |-5.953633e+06 |   0.12%| unknown
  1.6s|     1 |     0 |  1193 |     - |    76M |   0 | 142 |1860 |1866 |   6 |  5 |   0 |   0 |-5.946424e+06 |-5.953633e+06 |   0.12%| unknown
  1.8s|     1 |     0 |  1299 |     - |    79M |   0 | 142 |1860 |1868 |   8 |  6 |   0 |   0 |-5.946445e+06 |-5.953633e+06 |   0.12%| unknown
  1.9s|     1 |     0 |  1410 |     - |    80M |   0 | 142 |1860 |1870 |  10 |  7 |   0 |   0 |-5.946474e+06 |-5.953633e+06 |   0.12%| unknown
  2.0s|     1 |     0 |  1512 |     - |    81M |   0 | 142 |1860 |1871 |  11 |  8 |   0 |   0 |-5.946489e+06 |-5.953633e+06 |   0.12%| unknown
  2.2s|     1 |     0 |  1577 |     - |    81M |   0 | 142 |1860 |1872 |  12 |  9 |   0 |   0 |-5.946499e+06 |-5.953633e+06 |   0.12%| unknown
  2.3s|     1 |     0 |  1666 |     - |    82M |   0 | 142 |1860 |1873 |  13 | 10 |   0 |   0 |-5.946507e+06 |-5.953633e+06 |   0.12%| unknown
  2.4s|     1 |     0 |  1741 |     - |    82M |   0 | 142 |1860 |1876 |  16 | 11 |   0 |   0 |-5.946512e+06 |-5.953633e+06 |   0.12%| unknown
  2.4s|     1 |     0 |  1769 |     - |    83M |   0 | 142 |1860 |1877 |  17 | 12 |   0 |   0 |-5.946513e+06 |-5.953633e+06 |   0.12%| unknown
 time | node  | left  |LP iter|LP it/n|mem/heur|mdpt |vars |cons |rows |cuts |sepa|confs|strbr|  dualbound   | primalbound  |  gap   | compl. 
  2.5s|     1 |     0 |  1858 |     - |    83M |   0 | 142 |1860 |1879 |  19 | 13 |   0 |   0 |-5.946525e+06 |-5.953633e+06 |   0.12%| unknown
  2.6s|     1 |     0 |  1911 |     - |    83M |   0 | 142 |1860 |1881 |  21 | 14 |   0 |   0 |-5.946540e+06 |-5.953633e+06 |   0.12%| unknown
  2.6s|     1 |     0 |  1935 |     - |    83M |   0 | 142 |1860 |1883 |  23 | 15 |   0 |   0 |-5.946545e+06 |-5.953633e+06 |   0.12%| unknown
  4.7s|     1 |     2 |  2913 |     - |    84M |   0 | 142 |1860 |1883 |  23 | 17 |   0 |  19 |-5.947056e+06 |-5.953633e+06 |   0.11%| unknown
* 7.0s|     5 |     4 |  3781 | 461.8 |strongbr|   4 | 142 |1862 |1876 |  23 |  2 |   2 |  81 |-5.947056e+06 |-5.953603e+06 |   0.11%| unknown
* 7.3s|     6 |     3 |  3856 | 384.4 |strongbr|   4 | 142 |1863 |1876 |  23 |  2 |   3 |  95 |-5.947056e+06 |-5.952967e+06 |   0.10%|   5.10%
*10.4s|     9 |     4 |  4831 | 362.1 |strongbr|   4 | 142 |1865 |1876 |  23 |  2 |   5 | 169 |-5.947296e+06 |-5.952733e+06 |   0.09%|   8.63%
*11.9s|    11 |     4 |  5325 | 339.1 |strongbr|   4 | 142 |1866 |1876 |  23 |  2 |   6 | 233 |-5.947296e+06 |-5.952678e+06 |   0.09%|  14.38%
*19.4s|    69 |     6 | 10648 | 128.1 |    LP  |  10 | 142 |1896 |1876 |  23 |  1 |  40 | 505 |-5.947420e+06 |-5.952640e+06 |   0.09%|  54.36%
*19.4s|    72 |     5 | 10676 | 123.1 |    LP  |  10 | 142 |1895 |1876 |  23 |  1 |  40 | 505 |-5.947420e+06 |-5.952463e+06 |   0.08%|  54.88%
*21.2s|   100 |     3 | 13213 | 113.9 |strongbr|  13 | 142 |1901 |1878 |  33 |  1 |  46 | 551 |-5.947590e+06 |-5.952157e+06 |   0.08%|  68.26%
*22.5s|   122 |     4 | 14885 | 107.0 |    LP  |  13 | 142 |1904 |1883 |  43 |  1 |  51 | 560 |-5.947590e+06 |-5.951965e+06 |   0.07%|  76.74%
 25.0s|   200 |     6 | 23358 | 107.7 |    91M |  14 | 142 |1911 |1886 |  77 |  0 |  58 | 579 |-5.948772e+06 |-5.951965e+06 |   0.05%|  81.58%
 28.6s|   300 |     2 | 32623 | 102.6 |    96M |  16 | 142 |1716 |1876 | 115 |  1 |  74 | 599 |-5.949648e+06 |-5.951965e+06 |   0.04%|  94.02%
*28.7s|   310 |     2 | 33192 | 101.2 |    LP  |  16 | 142 |1685 |1876 | 115 |  1 |  76 | 600 |-5.949648e+06 |-5.951587e+06 |   0.03%|  94.52%

SCIP Status        : problem is solved [optimal solution found]
Solving Time (sec) : 28.81
Solving Nodes      : 318
Primal Bound       : -5.95158661234863e+06 (273 solutions)
Dual Bound         : -5.95158661234863e+06
Gap                : 0.00 %
Solve Status: optimal
Solve Time: 28.85 seconds
